13
0 1 2 3 1 3 1 4 2 1 4 3 4 2 4 2 2 3 5 3 4 3 5 6 4 6 7 5 2 5 6 5 8 6 1 7 8 2 2 1 3 4 7 8 7 3 9 7 8 1 6 8 4 9 9 5 6 1 8 8 9 7 10 10 2 7 11 4 9 12 11 5 10 10 0 10 6 1 3 9 1 12 10 1 3 6 12 5 8 0 11 11 0 7 12 0 11 11 7 9 
